0000000000000000
0000000000000000
0000111111110000
0000000000010000
0000000000011000
0000000000001000
0000000000001000
0000000000001100
0000000000000100
0000000000000100
0000000000000100
0000000000000100
0000000000011100
0000011111110000
0000000000000000
0000000000000000
